
Gurobi 9.1.1 (win64) logging started Sun Mar 13 20:35:15 2022

Changed value of parameter LogFile to ./Log/Direct_MIP_Return_solver_1200_order_60_batch.log
   Prev:   Default: 
Gurobi Optimizer version 9.1.1 build v9.1.1rc0 (win64)
Thread count: 6 physical cores, 12 logical processors, using up to 12 threads
Optimize a model with 259020 rows, 221760 columns and 764520 nonzeros
Model fingerprint: 0xc81c01db
Variable types: 2880 continuous, 218880 integer (218880 binary)
Coefficient statistics:
  Matrix range     [1e+00, 3e+01]
  Objective range  [4e-01, 1e+00]
  Bounds range     [1e+00, 4e+01]
  RHS range        [1e+00, 2e+01]
Found heuristic solution: objective 12002.800000
Presolve removed 120960 rows and 119640 columns
Presolve time: 2.09s
Presolved: 138060 rows, 102120 columns, 655920 nonzeros
Variable types: 0 continuous, 102120 integer (99420 binary)

Deterministic concurrent LP optimizer: primal and dual simplex
Showing first log only...


Root simplex log...

Iteration    Objective       Primal Inf.    Dual Inf.      Time
   18201    1.3315084e+04   0.000000e+00   3.341730e+05      5s
   32274    8.5781291e+03   0.000000e+00   2.663457e+05     10s
   41748    7.6463769e+03   0.000000e+00   4.531426e+05     15s
   47798    7.1533660e+03   0.000000e+00   2.820855e+06     20s
   51526    6.8436480e+03   0.000000e+00   1.093546e+07     25s
   53836    6.7060519e+03   0.000000e+00   1.264782e+07     30s
   55826    6.5714927e+03   0.000000e+00   3.127280e+06     35s
   57876    6.4356259e+03   0.000000e+00   2.295831e+06     40s
   59696    6.3110238e+03   0.000000e+00   2.338076e+06     45s
   61286    6.2058409e+03   0.000000e+00   1.113194e+07     50s
   62956    6.0871902e+03   0.000000e+00   4.195257e+07     55s
   64336    6.0099349e+03   0.000000e+00   2.118449e+07     60s
   65756    5.9265036e+03   0.000000e+00   3.726860e+06     65s
   67076    5.8624541e+03   0.000000e+00   1.746219e+06     70s
   68366    5.7858800e+03   0.000000e+00   1.311284e+08     75s
   69646    5.7281019e+03   0.000000e+00   3.206630e+06     80s
   70906    5.6682202e+03   0.000000e+00   4.966755e+06     85s
   72046    5.6115321e+03   0.000000e+00   2.977753e+07     90s
   73266    5.5540645e+03   0.000000e+00   1.097409e+08     95s
   74439    5.4938073e+03   0.000000e+00   3.806035e+06    100s
   75279    5.4275562e+03   0.000000e+00   2.415988e+07    105s
   76119    5.3245381e+03   0.000000e+00   3.146704e+08    111s
   76819    5.2487954e+03   0.000000e+00   1.722090e+07    115s
   77599    5.1618357e+03   0.000000e+00   3.518231e+07    120s
   78389    5.0853677e+03   0.000000e+00   2.595503e+07    125s
   79099    5.0222927e+03   0.000000e+00   3.603174e+07    130s
   79809    4.9634088e+03   0.000000e+00   2.711627e+07    136s
   80459    4.8908243e+03   0.000000e+00   7.027641e+07    140s
   81279    4.8162573e+03   0.000000e+00   3.608113e+06    146s
   81959    4.7549330e+03   0.000000e+00   5.693136e+07    150s
   82719    4.7098540e+03   0.000000e+00   2.345162e+07    155s
   83509    4.6470567e+03   0.000000e+00   2.724262e+07    161s
   84169    4.6044875e+03   0.000000e+00   6.041399e+07    165s
   84989    4.5582698e+03   0.000000e+00   1.685035e+07    171s
   85629    4.5283224e+03   0.000000e+00   1.195429e+07    175s
   86379    4.4932192e+03   0.000000e+00   6.849545e+06    180s
   87039    4.4615678e+03   0.000000e+00   1.907517e+08    185s
   87719    4.4272562e+03   0.000000e+00   1.359259e+07    190s
   88399    4.3938800e+03   0.000000e+00   1.759663e+07    195s
   89099    4.3675994e+03   0.000000e+00   1.849340e+07    200s
   89729    4.3239665e+03   0.000000e+00   1.097442e+08    205s
   90389    4.2961033e+03   0.000000e+00   2.615341e+07    210s
   91109    4.2692359e+03   0.000000e+00   4.382048e+07    216s
   91819    4.2377938e+03   0.000000e+00   7.018972e+05    221s
   92357    4.2223665e+03   0.000000e+00   2.402957e+07    225s
   93077    4.1951811e+03   0.000000e+00   4.111234e+08    231s
   93647    4.1765500e+03   0.000000e+00   2.174106e+06    235s
   94237    4.1538839e+03   0.000000e+00   7.150794e+06    240s
   94887    4.1280135e+03   0.000000e+00   1.310917e+07    245s
   95537    4.1106166e+03   0.000000e+00   4.743418e+06    250s
   96237    4.0914657e+03   0.000000e+00   4.732032e+07    256s
   96867    4.0728388e+03   0.000000e+00   3.050799e+07    261s
   97387    4.0564889e+03   0.000000e+00   2.835042e+07    265s
   98047    4.0338119e+03   0.000000e+00   5.272577e+07    271s
   98627    4.0092598e+03   0.000000e+00   7.100116e+07    276s
   99237    3.9827099e+03   0.000000e+00   3.219298e+07    281s
   99787    3.9603486e+03   0.000000e+00   1.145896e+07    285s
  100397    3.9408621e+03   0.000000e+00   3.994916e+07    290s
  100967    3.9284718e+03   0.000000e+00   2.740443e+07    295s


Root relaxation: time limit, 101544 iterations, 297.74 seconds

    Nodes    |    Current Node    |     Objective Bounds      |     Work
 Expl Unexpl |  Obj  Depth IntInf | Incumbent    BestBd   Gap | It/Node Time

     0     0          -    0      12002.8000 2080.80000  82.7%     -  300s

Explored 0 nodes (101544 simplex iterations) in 300.04 seconds
Thread count was 12 (of 12 available processors)

Solution count 1: 12002.8 

Time limit reached
Best objective 1.200280000000e+04, best bound 2.080800000000e+03, gap 82.6640%

Gurobi 9.5.1 (win64) logging started Wed Apr 20 07:24:34 2022

Set parameter LogFile to value "./Log/Direct_MIP_Return_solver_1200_order_60_batch.log"
Gurobi Optimizer version 9.5.1 build v9.5.1rc2 (win64)
Thread count: 6 physical cores, 12 logical processors, using up to 12 threads
Optimize a model with 343020 rows, 212160 columns and 1242780 nonzeros
Model fingerprint: 0x86b4caa8
Variable types: 2880 continuous, 209280 integer (209280 binary)
Coefficient statistics:
  Matrix range     [1e+00, 3e+01]
  Objective range  [4e-01, 1e+00]
  Bounds range     [1e+00, 4e+01]
  RHS range        [1e+00, 2e+01]
Found heuristic solution: objective 17650.000000
Presolve removed 83700 rows and 74160 columns
Presolve time: 3.44s
Presolved: 259320 rows, 138000 columns, 1136100 nonzeros
Variable types: 0 continuous, 138000 integer (135240 binary)

Deterministic concurrent LP optimizer: primal and dual simplex (primal and dual model)
Showing first log only...

Root relaxation presolve removed 60480 rows and 60480 columns
Root relaxation presolved: 198840 rows, 77520 columns, 917760 nonzeros


Use crossover to convert LP symmetric solution to basic solution...

Root crossover log...

       1 DPushes remaining with DInf 0.0000000e+00                 5s

   70741 PPushes remaining with PInf 0.0000000e+00                 5s
   54396 PPushes remaining with PInf 0.0000000e+00                12s
   48163 PPushes remaining with PInf 0.0000000e+00                15s
   35525 PPushes remaining with PInf 0.0000000e+00                22s
   30271 PPushes remaining with PInf 0.0000000e+00                26s
   19412 PPushes remaining with PInf 0.0000000e+00                31s
    1813 PPushes remaining with PInf 0.0000000e+00                35s
       0 PPushes remaining with PInf 0.0000000e+00                40s

  Push phase complete: Pinf 0.0000000e+00, Dinf 1.6811648e-10     40s


Root simplex log...

Iteration    Objective       Primal Inf.    Dual Inf.      Time
   70744    3.0660000e+03   0.000000e+00   0.000000e+00     40s
   70744    3.0660000e+03   0.000000e+00   0.000000e+00     40s
Concurrent spin time: 0.08s

Solved with primal simplex (primal model)

Root relaxation: objective 3.066000e+03, 70744 iterations, 36.52 seconds (19.97 work units)

    Nodes    |    Current Node    |     Objective Bounds      |     Work
 Expl Unexpl |  Obj  Depth IntInf | Incumbent    BestBd   Gap | It/Node Time

     0     0 3066.00000    0 113382 17650.0000 3066.00000  82.6%     -   78s
H    0     0                    16065.600000 3066.00000  80.9%     -   82s
H    0     0                    15734.800000 3066.00000  80.5%     -   82s
     0     0          -    0      15734.8000 3066.00000  80.5%     - 1000s

Cutting planes:
  Cover: 3040
  Clique: 3
  MIR: 6
  Zero half: 199
  RLT: 391
  Relax-and-lift: 944

Explored 1 nodes (151032 simplex iterations) in 1000.04 seconds (3001.71 work units)
Thread count was 12 (of 12 available processors)

Solution count 3: 15734.8 16065.6 17650 

Time limit reached
Best objective 1.573480000000e+04, best bound 3.066000000000e+03, gap 80.5145%

Gurobi 9.5.1 (win64) logging started Sun Apr 24 23:46:11 2022

Set parameter LogFile to value "./Log/Direct_MIP_Return_solver_1200_order_60_batch.log"
Gurobi Optimizer version 9.5.1 build v9.5.1rc2 (win64)
Thread count: 6 physical cores, 12 logical processors, using up to 12 threads
Optimize a model with 343020 rows, 212160 columns and 1243740 nonzeros
Model fingerprint: 0x6d87e161
Variable types: 2880 continuous, 209280 integer (209280 binary)
Coefficient statistics:
  Matrix range     [1e+00, 3e+01]
  Objective range  [4e-01, 1e+00]
  Bounds range     [1e+00, 4e+01]
  RHS range        [1e+00, 2e+01]
Found heuristic solution: objective 18078.800000
Presolve removed 84300 rows and 74580 columns
Presolve time: 3.36s
Presolved: 258720 rows, 137580 columns, 1133220 nonzeros
Variable types: 0 continuous, 137580 integer (134820 binary)

Deterministic concurrent LP optimizer: primal and dual simplex (primal and dual model)
Showing first log only...

Root relaxation presolve removed 60300 rows and 60180 columns
Root relaxation presolved: 198420 rows, 77400 columns, 912720 nonzeros


Use crossover to convert LP symmetric solution to basic solution...

Root crossover log...

   53103 PPushes remaining with PInf 0.0000000e+00                12s
   47594 PPushes remaining with PInf 0.0000000e+00                15s
   35457 PPushes remaining with PInf 0.0000000e+00                21s
   22395 PPushes remaining with PInf 0.0000000e+00                27s
   11666 PPushes remaining with PInf 0.0000000e+00                31s
    1528 PPushes remaining with PInf 0.0000000e+00                35s
       0 PPushes remaining with PInf 0.0000000e+00                39s

  Push phase complete: Pinf 0.0000000e+00, Dinf 7.3736288e-10     39s


Root simplex log...

Iteration    Objective       Primal Inf.    Dual Inf.      Time
   70570    3.0712000e+03   0.000000e+00   0.000000e+00     39s
   70570    3.0712000e+03   0.000000e+00   0.000000e+00     39s
Concurrent spin time: 0.12s

Solved with primal simplex (primal model)

Root relaxation: objective 3.071200e+03, 70570 iterations, 35.56 seconds (19.42 work units)

    Nodes    |    Current Node    |     Objective Bounds      |     Work
 Expl Unexpl |  Obj  Depth IntInf | Incumbent    BestBd   Gap | It/Node Time

     0     0 3071.20000    0 112898 18078.8000 3071.20000  83.0%     -   72s
H    0     0                    16230.400000 3071.20000  81.1%     -   75s
H    0     0                    15603.200000 3071.20000  80.3%     -   75s
     0     0          -    0      15603.2000 3071.20000  80.3%     - 1000s

Cutting planes:
  Cover: 2236
  MIR: 1
  Zero half: 244
  RLT: 56
  Relax-and-lift: 327

Explored 1 nodes (145833 simplex iterations) in 1000.05 seconds (3105.41 work units)
Thread count was 12 (of 12 available processors)

Solution count 3: 15603.2 16230.4 18078.8 

Time limit reached
Best objective 1.560320000000e+04, best bound 3.071200000000e+03, gap 80.3169%

Gurobi 9.5.1 (win64) logging started Tue May 24 17:58:00 2022

Set parameter LogFile to value "./Log/Direct_MIP_Return_solver_1200_order_60_batch.log"
Gurobi Optimizer version 9.5.1 build v9.5.1rc2 (win64)
Thread count: 6 physical cores, 12 logical processors, using up to 12 threads
Optimize a model with 343020 rows, 212160 columns and 1243860 nonzeros
Model fingerprint: 0x1a990282
Variable types: 2880 continuous, 209280 integer (209280 binary)
Coefficient statistics:
  Matrix range     [1e+00, 4e+01]
  Objective range  [4e-01, 1e+00]
  Bounds range     [1e+00, 4e+01]
  RHS range        [1e+00, 2e+01]
Found heuristic solution: objective 17689.600000
Presolve removed 85860 rows and 76560 columns
Presolve time: 3.39s
Presolved: 257160 rows, 135600 columns, 1131600 nonzeros
Variable types: 0 continuous, 135600 integer (132840 binary)

Deterministic concurrent LP optimizer: primal and dual simplex (primal and dual model)
Showing first log only...

Root relaxation presolve removed 58080 rows and 58080 columns
Root relaxation presolved: 199080 rows, 77520 columns, 918720 nonzeros


Use crossover to convert LP symmetric solution to basic solution...

Root crossover log...

   70741 PPushes remaining with PInf 0.0000000e+00                 5s
   53835 PPushes remaining with PInf 0.0000000e+00                12s
   47717 PPushes remaining with PInf 0.0000000e+00                16s
   35983 PPushes remaining with PInf 0.0000000e+00                23s
   30660 PPushes remaining with PInf 0.0000000e+00                26s
   15988 PPushes remaining with PInf 0.0000000e+00                30s
    1929 PPushes remaining with PInf 0.0000000e+00                35s
       0 PPushes remaining with PInf 0.0000000e+00                39s

  Push phase complete: Pinf 0.0000000e+00, Dinf 1.2735006e-10     39s


Root simplex log...

Iteration    Objective       Primal Inf.    Dual Inf.      Time
   70744    3.0724000e+03   0.000000e+00   0.000000e+00     39s
   70744    3.0724000e+03   0.000000e+00   0.000000e+00     39s
Concurrent spin time: 0.09s

Solved with primal simplex (primal model)

Root relaxation: objective 3.072400e+03, 70744 iterations, 35.38 seconds (21.61 work units)

    Nodes    |    Current Node    |     Objective Bounds      |     Work
 Expl Unexpl |  Obj  Depth IntInf | Incumbent    BestBd   Gap | It/Node Time

     0     0 3072.40000    0 111868 17689.6000 3072.40000  82.6%     -   86s
H    0     0                    16380.800000 3072.40000  81.2%     -   86s
     0     0          -    0      16380.8000 3072.40000  81.2%     - 1000s

Cutting planes:
  Cover: 2661
  Clique: 2
  MIR: 8
  Zero half: 179
  RLT: 572
  Relax-and-lift: 1176

Explored 1 nodes (145977 simplex iterations) in 1000.05 seconds (3037.27 work units)
Thread count was 12 (of 12 available processors)

Solution count 2: 16380.8 17689.6 

Time limit reached
Best objective 1.638080000000e+04, best bound 3.072400000000e+03, gap 81.2439%

Gurobi 9.5.1 (win64) logging started Tue May 24 18:14:58 2022

Set parameter LogFile to value "./Log/Direct_MIP_Return_solver_1200_order_60_batch.log"
Gurobi Optimizer version 9.5.1 build v9.5.1rc2 (win64)
Thread count: 6 physical cores, 12 logical processors, using up to 12 threads
Optimize a model with 343020 rows, 212160 columns and 1240740 nonzeros
Model fingerprint: 0xf81e85d3
Variable types: 2880 continuous, 209280 integer (209280 binary)
Coefficient statistics:
  Matrix range     [1e+00, 3e+01]
  Objective range  [4e-01, 1e+00]
  Bounds range     [1e+00, 4e+01]
  RHS range        [1e+00, 2e+01]
Found heuristic solution: objective 17421.200000
Presolve removed 85740 rows and 75480 columns
Presolve time: 3.43s
Presolved: 257280 rows, 136680 columns, 1131180 nonzeros
Variable types: 0 continuous, 136680 integer (133920 binary)

Deterministic concurrent LP optimizer: primal and dual simplex (primal and dual model)
Showing first log only...

Root relaxation presolve removed 59280 rows and 59220 columns
Root relaxation presolved: 198000 rows, 77460 columns, 913440 nonzeros


Use crossover to convert LP symmetric solution to basic solution...

Root crossover log...

       0 DPushes remaining with DInf 0.0000000e+00                 5s

   70564 PPushes remaining with PInf 0.0000000e+00                 5s
   52728 PPushes remaining with PInf 0.0000000e+00                12s
   47199 PPushes remaining with PInf 0.0000000e+00                15s
   40725 PPushes remaining with PInf 0.0000000e+00                21s
   25875 PPushes remaining with PInf 0.0000000e+00                27s
   20780 PPushes remaining with PInf 0.0000000e+00                31s
   10385 PPushes remaining with PInf 0.0000000e+00                37s
    2702 PPushes remaining with PInf 0.0000000e+00                40s
     435 PPushes remaining with PInf 0.0000000e+00                45s
       0 PPushes remaining with PInf 0.0000000e+00                47s

  Push phase complete: Pinf 0.0000000e+00, Dinf 1.4293986e-10     47s


Root simplex log...

Iteration    Objective       Primal Inf.    Dual Inf.      Time
   70570    3.0608000e+03   0.000000e+00   0.000000e+00     47s
   70570    3.0608000e+03   0.000000e+00   0.000000e+00     48s
Concurrent spin time: 0.22s

Solved with primal simplex (primal model)

Root relaxation: objective 3.060800e+03, 70570 iterations, 43.77 seconds (26.86 work units)

    Nodes    |    Current Node    |     Objective Bounds      |     Work
 Expl Unexpl |  Obj  Depth IntInf | Incumbent    BestBd   Gap | It/Node Time

     0     0 3060.80000    0 112387 17421.2000 3060.80000  82.4%     -  103s
H    0     0                    15983.200000 3060.80000  80.8%     -  104s
H    0     0                    15605.200000 3060.80000  80.4%     -  104s
     0     0          -    0      15605.2000 3060.80000  80.4%     - 1000s

Cutting planes:
  Cover: 3101
  Clique: 5
  MIR: 22
  StrongCG: 1
  Zero half: 205
  RLT: 514
  Relax-and-lift: 1284

Explored 1 nodes (139274 simplex iterations) in 1000.06 seconds (2706.74 work units)
Thread count was 12 (of 12 available processors)

Solution count 3: 15605.2 15983.2 17421.2 

Time limit reached
Best objective 1.560520000000e+04, best bound 3.060800000000e+03, gap 80.3860%

Gurobi 9.5.1 (win64) logging started Tue May 24 18:31:58 2022

Set parameter LogFile to value "./Log/Direct_MIP_Return_solver_1200_order_60_batch.log"
Gurobi Optimizer version 9.5.1 build v9.5.1rc2 (win64)
Thread count: 6 physical cores, 12 logical processors, using up to 12 threads
Optimize a model with 343020 rows, 212160 columns and 1242000 nonzeros
Model fingerprint: 0x7c73548f
Variable types: 2880 continuous, 209280 integer (209280 binary)
Coefficient statistics:
  Matrix range     [1e+00, 3e+01]
  Objective range  [4e-01, 1e+00]
  Bounds range     [1e+00, 4e+01]
  RHS range        [1e+00, 2e+01]
Found heuristic solution: objective 18012.000000
Presolve removed 85260 rows and 74700 columns
Presolve time: 3.68s
Presolved: 257760 rows, 137460 columns, 1129680 nonzeros
Variable types: 0 continuous, 137460 integer (134700 binary)

Deterministic concurrent LP optimizer: primal and dual simplex (primal and dual model)
Showing first log only...

Root relaxation presolve removed 59940 rows and 59940 columns
Root relaxation presolved: 197820 rows, 77520 columns, 913680 nonzeros


Root simplex log...

Iteration    Objective       Primal Inf.    Dual Inf.      Time
       0    3.0744000e+03   0.000000e+00   0.000000e+00      5s

Use crossover to convert LP symmetric solution to basic solution...

Root crossover log...

       1 DPushes remaining with DInf 0.0000000e+00                 5s

   70741 PPushes remaining with PInf 0.0000000e+00                 6s
   53107 PPushes remaining with PInf 0.0000000e+00                14s
   47542 PPushes remaining with PInf 0.0000000e+00                18s
   41524 PPushes remaining with PInf 0.0000000e+00                22s
   34758 PPushes remaining with PInf 0.0000000e+00                26s
   19143 PPushes remaining with PInf 0.0000000e+00                33s
   13833 PPushes remaining with PInf 0.0000000e+00                37s
    2839 PPushes remaining with PInf 0.0000000e+00                40s
       0 PPushes remaining with PInf 0.0000000e+00                46s

  Push phase complete: Pinf 0.0000000e+00, Dinf 3.1391769e-10     46s


Root simplex log...

Iteration    Objective       Primal Inf.    Dual Inf.      Time
   70744    3.0744000e+03   0.000000e+00   0.000000e+00     46s
   70744    3.0744000e+03   0.000000e+00   0.000000e+00     46s
Concurrent spin time: 0.27s

Solved with primal simplex (primal model)

Root relaxation: objective 3.074400e+03, 70744 iterations, 42.04 seconds (21.15 work units)

    Nodes    |    Current Node    |     Objective Bounds      |     Work
 Expl Unexpl |  Obj  Depth IntInf | Incumbent    BestBd   Gap | It/Node Time

     0     0 3074.40000    0 112712 18012.0000 3074.40000  82.9%     -   87s
H    0     0                    16386.400000 3074.40000  81.2%     -   88s
     0     0          -    0      16386.4000 3074.40000  81.2%     - 1000s

Cutting planes:
  Cover: 4080
  Clique: 2
  MIR: 19
  Zero half: 164
  RLT: 994
  Relax-and-lift: 1670

Explored 1 nodes (143352 simplex iterations) in 1000.11 seconds (2604.50 work units)
Thread count was 12 (of 12 available processors)

Solution count 2: 16386.4 18012 

Time limit reached
Best objective 1.638640000000e+04, best bound 3.074400000000e+03, gap 81.2381%

Gurobi 9.5.1 (win64) logging started Tue May 24 18:48:58 2022

Set parameter LogFile to value "./Log/Direct_MIP_Return_solver_1200_order_60_batch.log"
Gurobi Optimizer version 9.5.1 build v9.5.1rc2 (win64)
Thread count: 6 physical cores, 12 logical processors, using up to 12 threads
Optimize a model with 343020 rows, 212160 columns and 1240980 nonzeros
Model fingerprint: 0x4cdd1bc8
Variable types: 2880 continuous, 209280 integer (209280 binary)
Coefficient statistics:
  Matrix range     [1e+00, 3e+01]
  Objective range  [4e-01, 1e+00]
  Bounds range     [1e+00, 4e+01]
  RHS range        [1e+00, 2e+01]
Found heuristic solution: objective 18082.400000
Presolve removed 86580 rows and 76260 columns
Presolve time: 3.70s
Presolved: 256440 rows, 135900 columns, 1128960 nonzeros
Variable types: 0 continuous, 135900 integer (133140 binary)

Deterministic concurrent LP optimizer: primal and dual simplex (primal and dual model)
Showing first log only...

Root relaxation presolve removed 58620 rows and 58500 columns
Root relaxation presolved: 197820 rows, 77400 columns, 910800 nonzeros


Root simplex log...

Iteration    Objective       Primal Inf.    Dual Inf.      Time
       0    3.0524000e+03   0.000000e+00   0.000000e+00      5s

Use crossover to convert LP symmetric solution to basic solution...

Root crossover log...

       2 DPushes remaining with DInf 0.0000000e+00                 5s
       0 DPushes remaining with DInf 0.0000000e+00                 5s

   70682 PPushes remaining with PInf 0.0000000e+00                 5s
   53579 PPushes remaining with PInf 0.0000000e+00                14s
   47709 PPushes remaining with PInf 0.0000000e+00                18s
   41774 PPushes remaining with PInf 0.0000000e+00                22s
   35558 PPushes remaining with PInf 0.0000000e+00                26s
   30355 PPushes remaining with PInf 0.0000000e+00                30s
   19473 PPushes remaining with PInf 0.0000000e+00                38s
   10428 PPushes remaining with PInf 0.0000000e+00                40s
     232 PPushes remaining with PInf 0.0000000e+00                46s
       0 PPushes remaining with PInf 0.0000000e+00                47s

  Push phase complete: Pinf 0.0000000e+00, Dinf 1.9611450e-10     47s


Root simplex log...

Iteration    Objective       Primal Inf.    Dual Inf.      Time
   70686    3.0524000e+03   0.000000e+00   0.000000e+00     47s
   70686    3.0524000e+03   0.000000e+00   0.000000e+00     47s
Concurrent spin time: 0.14s

Solved with primal simplex (primal model)

Root relaxation: objective 3.052400e+03, 70686 iterations, 43.44 seconds (18.81 work units)

    Nodes    |    Current Node    |     Objective Bounds      |     Work
 Expl Unexpl |  Obj  Depth IntInf | Incumbent    BestBd   Gap | It/Node Time

     0     0 3052.40000    0 111502 18082.4000 3052.40000  83.1%     -   83s
H    0     0                    15946.800000 3052.40000  80.9%     -   84s
     0     0          -    0      15946.8000 3052.40000  80.9%     - 1000s

Cutting planes:
  Cover: 3597
  MIR: 4
  Zero half: 146
  RLT: 904
  Relax-and-lift: 2234

Explored 1 nodes (139510 simplex iterations) in 1000.05 seconds (2809.80 work units)
Thread count was 12 (of 12 available processors)

Solution count 2: 15946.8 18082.4 

Time limit reached
Best objective 1.594680000000e+04, best bound 3.052400000000e+03, gap 80.8589%
